NAME : ftv44.tour
COMMENT : Optimum tour for ftv44.tsp (Length = 1613)
TYPE : TOUR
DIMENSION : 90
TOUR_SECTION  
24
68
23
64
19
62
17
63
18
61
16
58
13
59
14
60
15
89
44
57
12
56
11
65
20
67
22
66
21
53
8
55
10
54
9
86
41
52
7
87
42
85
40
81
36
78
33
74
29
71
26
72
27
73
28
79
34
80
35
82
37
83
38
84
39
90
45
49
4
50
5
51
6
46
1
47
2
48
3
77
32
76
31
75
30
70
25
88
43
69
-1
EOF
